p cnf 84 154
1 8 15 22 29 36 43 0
2 9 16 23 30 37 44 0
3 10 17 24 31 38 45 0
4 11 18 25 32 39 46 0
5 12 19 26 33 40 47 0
6 13 20 27 34 41 48 0
7 14 21 28 35 42 49 0
-1 50 0
-2 50 0
-1 -2 0
1 2 -50 0
-50 51 0
-3 51 0
-50 -3 0
50 3 -51 0
-51 52 0
-4 52 0
-51 -4 0
51 4 -52 0
-52 53 0
-5 53 0
-52 -5 0
52 5 -53 0
-53 54 0
-6 54 0
-53 -6 0
53 6 -54 0
-54 -7 0
-8 55 0
-9 55 0
-8 -9 0
8 9 -55 0
-55 56 0
-10 56 0
-55 -10 0
55 10 -56 0
-56 57 0
-11 57 0
-56 -11 0
56 11 -57 0
-57 58 0
-12 58 0
-57 -12 0
57 12 -58 0
-58 59 0
-13 59 0
-58 -13 0
58 13 -59 0
-59 -14 0
-15 60 0
-16 60 0
-15 -16 0
15 16 -60 0
-60 61 0
-17 61 0
-60 -17 0
60 17 -61 0
-61 62 0
-18 62 0
-61 -18 0
61 18 -62 0
-62 63 0
-19 63 0
-62 -19 0
62 19 -63 0
-63 64 0
-20 64 0
-63 -20 0
63 20 -64 0
-64 -21 0
-22 65 0
-23 65 0
-22 -23 0
22 23 -65 0
-65 66 0
-24 66 0
-65 -24 0
65 24 -66 0
-66 67 0
-25 67 0
-66 -25 0
66 25 -67 0
-67 68 0
-26 68 0
-67 -26 0
67 26 -68 0
-68 69 0
-27 69 0
-68 -27 0
68 27 -69 0
-69 -28 0
-29 70 0
-30 70 0
-29 -30 0
29 30 -70 0
-70 71 0
-31 71 0
-70 -31 0
70 31 -71 0
-71 72 0
-32 72 0
-71 -32 0
71 32 -72 0
-72 73 0
-33 73 0
-72 -33 0
72 33 -73 0
-73 74 0
-34 74 0
-73 -34 0
73 34 -74 0
-74 -35 0
-36 75 0
-37 75 0
-36 -37 0
36 37 -75 0
-75 76 0
-38 76 0
-75 -38 0
75 38 -76 0
-76 77 0
-39 77 0
-76 -39 0
76 39 -77 0
-77 78 0
-40 78 0
-77 -40 0
77 40 -78 0
-78 79 0
-41 79 0
-78 -41 0
78 41 -79 0
-79 -42 0
-43 80 0
-44 80 0
-43 -44 0
43 44 -80 0
-80 81 0
-45 81 0
-80 -45 0
80 45 -81 0
-81 82 0
-46 82 0
-81 -46 0
81 46 -82 0
-82 83 0
-47 83 0
-82 -47 0
82 47 -83 0
-83 84 0
-48 84 0
-83 -48 0
83 48 -84 0
-84 -49 0
